tsp_instances/TSP20/instance68.tsp
NODE_COORD_SECTION
0 94 179
1 76 2
2 176 57
3 166 87
4 24 178
5 131 92
6 84 40
7 99 65
8 19 76
9 0 94
10 44 118
11 142 49
12 45 189
13 11 37
14 102 40
15 154 166
16 106 186
17 13 190
18 156 137
19 109 100
