tsp_instances/TSP20/instance68.opt.tour
TOUR_SECTION
1
13
18
5
11
10
9
14
2
7
15
8
20
6
12
3
4
19
16
17
-1